************************************************************************
file with basedata            : j60_29.bas
initial value random generator: 19296
************************************************************************
projects                      :  1
jobs (incl. supersource/sink ):  62
horizon                       :  340
RESOURCES
  - renewable                 :  4   R
  - nonrenewable              :  0   N
  - doubly constrained        :  0   D
************************************************************************
PROJECT INFORMATION:
pronr.  #jobs rel.date duedate tardcost  MPM-Time
    1     60      0       69        9       69
************************************************************************
PRECEDENCE RELATIONS:
jobnr.    #modes  #successors   successors
   1        1          3           2   3   4
   2        1          3           6   8  13
   3        1          3           5   7  25
   4        1          1          10
   5        1          3          16  33  35
   6        1          1          31
   7        1          3          12  15  36
   8        1          3           9  11  24
   9        1          1          19
  10        1          2          27  54
  11        1          3          14  18  28
  12        1          2          26  31
  13        1          2          17  22
  14        1          3          23  38  39
  15        1          2          20  32
  16        1          1          61
  17        1          1          36
  18        1          3          21  30  37
  19        1          2          20  51
  20        1          1          45
  21        1          1          41
  22        1          1          34
  23        1          1          31
  24        1          2          44  46
  25        1          2          27  47
  26        1          2          29  41
  27        1          1          48
  28        1          1          59
  29        1          1          57
  30        1          1          46
  31        1          1          59
  32        1          3          42  43  49
  33        1          1          40
  34        1          2          45  52
  35        1          1          53
  36        1          1          55
  37        1          1          40
  38        1          2          56  58
  39        1          1          60
  40        1          1          51
  41        1          2          46  50
  42        1          1          55
  43        1          1          54
  44        1          1          51
  45        1          1          50
  46        1          1          53
  47        1          1          56
  48        1          1          59
  49        1          1          61
  50        1          2          54  56
  51        1          1          52
  52        1          1          53
  53        1          1          58
  54        1          1          55
  55        1          1          60
  56        1          1          61
  57        1          1          58
  58        1          1          60
  59        1          1          62
  60        1          1          62
  61        1          1          62
  62        1          0        
************************************************************************
REQUESTS/DURATIONS:
jobnr. mode duration  R 1  R 2  R 3  R 4
------------------------------------------------------------------------
  1      1     0       0    0    0    0
  2      1     4       9    6    4    8
  3      1     9       5    5    4    6
  4      1     7       3    2    1    4
  5      1     2      10    5    8    7
  6      1     1       9    5   10    1
  7      1     6       1   10   10    9
  8      1     8       2    6    1    5
  9      1    10       7    8    2    3
 10      1     8      10   10    2    9
 11      1     7       8    4    6    8
 12      1     1       3    7    3    9
 13      1     2      10   10    8    7
 14      1     4       1    3    1    3
 15      1     9       1    1    8   10
 16      1     7       5    2    1    7
 17      1     7       6    5    7    3
 18      1     6       3   10    2   10
 19      1     3       8    7    2    8
 20      1     8       3   10    7    7
 21      1     6       1    8    4    2
 22      1     4       6    5    9    2
 23      1    10      10    2    4    5
 24      1     4       8    8    3    1
 25      1     7       1    6    3    8
 26      1    10       1    4    5    4
 27      1     2       8    5    6    9
 28      1     7       5    4    7   10
 29      1     3       1    6    5    2
 30      1     1      10    4    1    9
 31      1     8       5   10    3    5
 32      1     8       9    9    7    5
 33      1     1       2    2    5    4
 34      1     5       4    4    5    8
 35      1     1       1    6    9    3
 36      1    10       4    3    2    5
 37      1     5       9    1    3    3
 38      1     9       3    9    4    3
 39      1     1       5   10    7    4
 40      1     5      10    5    5    8
 41      1     7       5    8    7    6
 42      1     6       3    3    6    6
 43      1     9       2    9    3    6
 44      1     8       5    5    9    6
 45      1     2       8    4    7    3
 46      1     1      10    3    2    1
 47      1     8       5    9    3    6
 48      1     5       5    9    6    4
 49      1    10      10    9    3    4
 50      1     1       4    3    3    7
 51      1     7       6    5   10    6
 52      1     9       5   10    2    2
 53      1     7       9    1    7    8
 54      1     1       5    3   10    2
 55      1     7       5    1   10    6
 56      1    10       5    9    2   10
 57      1     3       6    2    2    2
 58      1     8       9    8    2    9
 59      1     5       7    5    4    4
 60      1     3       1    5    8    1
 61      1     7      10    3    2    6
 62      1     0       0    0    0    0
************************************************************************
RESOURCEAVAILABILITIES:
  R 1  R 2  R 3  R 4
   18   21   19   22
************************************************************************
